mode: 3, sl: 0, sr: 0, revisit: 1, loop: 1
Jetsuite speed factor: 6.68
Solving mode: 3-indexed base
Solving mode: 3-indexed base
Instance name: /home/orlab/rv-fstsp2/rv-fstsp-jetsuite/Niels_instances/output_with_jetsuite//uniform-alpha_3-54-n10-maxradius-150.txt
---------------------------------------------------------------
Current config:
- Number of threads = -1
- Drone endurance = 9999
- SL = 0
- SR = 0
- Allow loop = 1
- Allow revisit = 1
- Allow multi-visit drone = 0
- Use TSP optimal solution as warmstart: = 0
- Use cutting plane method: = 0
- Use CPLEX conflict refiner: = 0
- Debug info: = 0
- Jetsuit enabled: = 0
---------------------------------------------------------------
Version identifier: 22.1.1.0 | 2022-11-28 | 9160aff4d
Tried aggregator 2 times.
MIP Presolve eliminated 1114 rows and 2171 columns.
MIP Presolve modified 1472 coefficients.
Aggregator did 9 substitutions.
Reduced MIP has 1249 rows, 3780 columns, and 30892 nonzeros.
Reduced MIP has 3760 binaries, 0 generals, 0 SOSs, and 0 indicators.
Presolve time = 0.04 sec. (45.36 ticks)
Found incumbent of value 91209.710550 after 0.06 sec. (68.69 ticks)
Probing fixed 54 vars, tightened 18 bounds.
Probing changed sense of 5 constraints.
Probing time = 0.17 sec. (187.40 ticks)
Cover probing fixed 0 vars, tightened 38 bounds.
Tried aggregator 2 times.
Detecting symmetries...
MIP Presolve eliminated 53 rows and 121 columns.
MIP Presolve modified 2689 coefficients.
Aggregator did 12 substitutions.
Reduced MIP has 1181 rows, 3647 columns, and 30190 nonzeros.
Reduced MIP has 3634 binaries, 0 generals, 0 SOSs, and 0 indicators.
Presolve time = 0.04 sec. (50.39 ticks)
Probing time = 0.01 sec. (7.80 ticks)
Cover probing fixed 0 vars, tightened 3 bounds.
Clique table members: 14636.
MIP emphasis: balance optimality and feasibility.
MIP search method: dynamic search.
Parallel mode: deterministic, using up to 20 threads.
Root relaxation solution time = 0.17 sec. (188.35 ticks)

        Nodes                                         Cuts/
   Node  Left     Objective  IInf  Best Integer    Best Bound    ItCnt     Gap

*     0+    0                        91209.7105       10.8309            99.99%
      0     0       22.3412   123    91209.7105       22.3412       27   99.98%
*     0+    0                          155.8513       22.3412            85.67%
      0     0       50.0153   147      155.8513      Cuts: 22     3122   67.91%
      0     0       50.1574   128      155.8513      Cuts: 35     3911   67.82%
      0     0       50.1574   108      155.8513      Cuts: 27     4133   67.82%
      0     0       50.1574   120      155.8513      Cuts: 28     4447   67.82%
      0     0       50.1574   144      155.8513      Cuts: 25     4937   67.82%
Detecting symmetries...
Detecting symmetries...
      0     2       50.1574    99      155.8513       50.1574     4937   67.82%
Elapsed time = 2.63 sec. (1850.71 ticks, tree = 0.02 MB, solutions = 2)
    145    42      144.8293    28      155.8513       50.1574    10944   67.82%
   1445    20       94.0712    65      155.8513       50.1574    31614   67.82%
   2394    27        cutoff            155.8513       50.1574    51007   67.82%
*  2593    35      integral     0      151.6279       50.1574    55866   66.92%
*  2607    43      integral     0      145.6593       50.1574    56435   65.57%
   2673     3       53.2629   113      145.6593       50.1618    63006   65.56%
   2835    18      110.5805   111      145.6593       53.2629    71343   63.43%
   3541   112      145.1111    41      145.6593       53.3255   105913   63.39%
   4450   133      117.5125    88      145.6593       53.3301   135072   63.39%
   5309   392        cutoff            145.6593       53.3301   198581   63.39%
   5853   408        cutoff            145.6593       53.3318   222087   63.39%
   8826    47      122.6549    85      145.6593       56.4897   412746   61.22%
Elapsed time = 5.94 sec. (4964.69 ticks, tree = 0.09 MB, solutions = 8)

Performing restart 1

Repeating presolve.
Tried aggregator 2 times.
MIP Presolve eliminated 96 rows and 237 columns.
MIP Presolve modified 12246 coefficients.
Aggregator did 4 substitutions.
Reduced MIP has 1080 rows, 3406 columns, and 22542 nonzeros.
Reduced MIP has 3395 binaries, 0 generals, 0 SOSs, and 0 indicators.
Presolve time = 0.02 sec. (37.90 ticks)
Tried aggregator 2 times.
MIP Presolve eliminated 13 rows and 62 columns.
MIP Presolve modified 239 coefficients.
Aggregator did 1 substitutions.
Reduced MIP has 1066 rows, 3343 columns, and 21894 nonzeros.
Reduced MIP has 3332 binaries, 0 generals, 0 SOSs, and 0 indicators.
Presolve time = 0.01 sec. (23.93 ticks)
Tried aggregator 2 times.
MIP Presolve eliminated 53 rows and 356 columns.
MIP Presolve modified 259 coefficients.
Aggregator did 3 substitutions.
Reduced MIP has 1010 rows, 2984 columns, and 19873 nonzeros.
Reduced MIP has 2973 binaries, 0 generals, 0 SOSs, and 0 indicators.
Presolve time = 0.01 sec. (20.30 ticks)
Tried aggregator 2 times.
MIP Presolve eliminated 56 rows and 235 columns.
MIP Presolve modified 742 coefficients.
Aggregator did 3 substitutions.
Reduced MIP has 951 rows, 2746 columns, and 17976 nonzeros.
Reduced MIP has 2735 binaries, 0 generals, 0 SOSs, and 0 indicators.
Presolve time = 0.02 sec. (29.81 ticks)
Tried aggregator 2 times.
MIP Presolve eliminated 0 rows and 16 columns.
MIP Presolve modified 76 coefficients.
Aggregator did 1 substitutions.
Reduced MIP has 950 rows, 2729 columns, and 17891 nonzeros.
Reduced MIP has 2718 binaries, 0 generals, 0 SOSs, and 0 indicators.
Presolve time = 0.01 sec. (16.91 ticks)
Represolve time = 0.38 sec. (618.76 ticks)
   8885     0       52.2021   185      145.6593      Cuts: 28   434544   61.22%
   8885     0       53.2629   150      145.6593      Cuts: 62   434943   61.22%
   8885     0       53.2629   154      145.6593      Cuts: 57   435162   61.22%
   8885     0       53.2629   107      145.6593    MIRcuts: 3   435288   61.22%
   8885     0       53.2629   127      145.6593      Cuts: 84   435458   61.22%
   8885     0       53.2629    99      145.6593    MIRcuts: 4   435539   61.22%
   8885     0       53.2629   148      145.6593      Cuts: 60   435911   61.22%
   8885     0       53.2629   102      145.6593       Cuts: 5   435944   61.22%
   8885     0       53.2629   119      145.6593      Cuts: 42   436046   61.22%
   8885     2       53.2629    91      145.6593       56.4897   436046   61.22%
  11349   660      121.4894    72      145.6593       56.4897   539716   61.22%
  13053   796        cutoff            145.6593       56.4897   693324   61.22%
  16397    18      103.3580   102      145.6593       57.2750   824027   60.68%
  17728    20        cutoff            145.6593       58.7227   941606   59.68%
  18291    10      128.8838   105      145.6593      114.7659  1022473   21.21%

Clique cuts applied:  2
Cover cuts applied:  5
Implied bound cuts applied:  4
Flow cuts applied:  5
Mixed integer rounding cuts applied:  60
Zero-half cuts applied:  5
Lift and project cuts applied:  2
Gomory fractional cuts applied:  6

Root node processing (before b&c):
  Real time             =    2.44 sec. (1813.19 ticks)
Parallel b&c, 20 threads:
  Real time             =   11.60 sec. (11780.86 ticks)
  Sync time (average)   =    4.26 sec.
  Wait time (average)   =    0.01 sec.
                          ------------
Total (root+branch&cut) =   14.04 sec. (13594.05 ticks)
Solve time: 14.052
Objective Value: 145.659

Truck Schedule: 
Stage 1: Truck arrived node 0 at 0
	Truck departed from node 0 to node 7 at 0
Stage 2: Truck arrived node 7 at 10.8309
	Truck departed from node 7 to node 4 at 10.8309
Stage 3: Truck arrived node 4 at 51.4388
	Truck departed from node 4 to node 4 at 51.4388
Stage 4: Truck arrived node 4 at 51.4388
	Truck departed from node 4 to node 4 at 72.8137
Stage 5: Truck arrived node 4 at 72.8137
	Truck departed from node 4 to node 6 at 91.5712
Stage 6: Truck arrived node 6 at 120.692
	Truck departed from node 6 to node 10 at 120.692
Stage 7: Truck arrived node 10 at 145.659

Truck arc:
Stage 1: 0 -> 7
Stage 2: 7 -> 4
Stage 3: 4 -> 4
Stage 4: 4 -> 4
Stage 5: 4 -> 6
Stage 6: 6 -> 10

Drone Schedule: 
Stage 1 to 3: Drone departed from node 0 visited customer 1 and arrived to node 4
	 Departed at: 0
	 Visited at: 27.2473
	 Arrived at: 48.604
Added drone operation: position 0 (node 0) -> customer 1 -> position 2 (node 4)
Stage 3 to 4: Drone departed from node 4 visited customer 5 and arrived to node 4
	 Departed at: 51.4388
	 Visited at: 62.1263
	 Arrived at: 72.8137
Added drone operation: position 2 (node 4) -> customer 5 -> position 3 (node 4)
Stage 4 to 5: Drone departed from node 4 visited customer 3 and arrived to node 4
	 Departed at: 72.8137
	 Visited at: 78.6352
	 Arrived at: 84.4566
Added drone operation: position 3 (node 4) -> customer 3 -> position 4 (node 4)
Stage 5 to 7: Drone departed from node 4 visited customer 2 and arrived to node 10
	 Departed at: 91.5712
	 Visited at: 111.929
	 Arrived at: 144.506
Added drone operation: position 4 (node 4) -> customer 2 -> position 6 (node 10)

Jetsuite Schedule: 
Stage 3: Jetsuite launched from node 4 served customer 8 and recovered at node 4
Stage 4: Jetsuite launched from node 4 served customer 9 and recovered at node 4
x[0][7][1] = 1
x[4][4][3] = 1
x[4][4][4] = 1
x[4][6][5] = 1
x[6][10][6] = 1
x[7][4][2] = 1

Drone Variables (V[i][h][k]):
Y[0][1][1] = 1
Y[4][2][5] = 1
Y[4][3][4] = 1
Y[4][5][3] = 1

Jetsuite Variables (U[i][h][k]):
U[4][8][3] = 1
U[4][9][4] = 1

Checking the feasibility of the solution...
Time schedule is not given, recalculating...
Current objective: 145.659
Recalculated objective: 138.545
